100
1475
20
31
41
58
97
8
68
91
22
95
98
74
90
48
16
87
74
7
1
35
10
0 1
0 2
0 6
0 10
0 11
0 12
0 14
0 17
0 19
0 21
0 26
0 31
0 32
0 38
0 41
0 42
0 45
0 47
0 49
0 50
0 55
0 56
0 59
0 61
0 66
0 75
0 77
0 78
0 81
0 88
0 90
0 93
0 94
0 96
1 2
1 5
1 8
1 11
1 28
1 44
1 48
1 57
1 59
1 60
1 72
1 73
1 77
1 80
1 83
1 96
1 99
2 3
2 4
2 6
2 10
2 13
2 14
2 16
2 17
2 18
2 19
2 20
2 21
2 25
2 31
2 37
2 45
2 49
2 52
2 54
2 59
2 63
2 64
2 66
2 67
2 71
2 79
2 83
2 90
2 92
2 93
2 98
3 5
3 7
3 9
3 17
3 20
3 22
3 25
3 29
3 32
3 34
3 38
3 40
3 41
3 42
3 44
3 48
3 54
3 57
3 59
3 62
3 67
3 68
3 69
3 70
3 72
3 74
3 76
3 79
3 87
3 89
3 94
3 96
3 99
4 6
4 7
4 13
4 15
4 16
4 18
4 25
4 26
4 28
4 30
4 33
4 34
4 38
4 45
4 50
4 51
4 52
4 53
4 55
4 58
4 63
4 64
4 66
4 71
4 76
4 77
4 78
4 81
4 88
4 91
5 6
5 9
5 11
5 12
5 13
5 14
5 15
5 23
5 29
5 31
5 41
5 43
5 47
5 51
5 57
5 61
5 64
5 66
5 67
5 75
5 77
5 83
6 9
6 18
6 19
6 20
6 22
6 27
6 36
6 37
6 39
6 45
6 47
6 51
6 52
6 62
6 65
6 67
6 72
6 73
6 79
6 88
6 90
6 97
7 9
7 10
7 11
7 16
7 21
7 22
7 25
7 26
7 27
7 34
7 39
7 40
7 41
7 42
7 50
7 53
7 55
7 57
7 59
7 61
7 63
7 64
7 65
7 67
7 70
7 74
7 77
7 80
7 83
7 84
7 90
7 92
7 96
8 9
8 10
8 11
8 13
8 19
8 24
8 32
8 33
8 36
8 37
8 38
8 43
8 52
8 54
8 56
8 70
8 73
8 74
8 78
8 79
8 80
8 90
8 93
8 94
8 96
8 98
8 99
9 10
9 11
9 12
9 17
9 19
9 22
9 25
9 30
9 35
9 40
9 43
9 45
9 46
9 47
9 49
9 50
9 52
9 53
9 55
9 59
9 60
9 70
9 71
9 73
9 76
9 82
9 83
9 86
9 95
9 98
10 22
10 23
10 26
10 30
10 31
10 34
10 43
10 45
10 47
10 53
10 55
10 56
10 60
10 63
10 67
10 69
10 72
10 78
10 80
10 82
10 86
10 87
10 88
10 89
10 98
10 99
11 13
11 20
11 22
11 23
11 24
11 31
11 36
11 38
11 39
11 45
11 47
11 54
11 56
11 57
11 61
11 62
11 64
11 68
11 74
11 75
11 77
11 78
11 81
11 82
11 90
11 94
11 97
12 13
12 18
12 20
12 24
12 29
12 33
12 44
12 45
12 47
12 51
12 55
12 59
12 61
12 64
12 67
12 69
12 73
12 75
12 77
12 79
12 81
12 82
12 84
12 86
12 87
12 89
12 92
12 95
12 97
12 98
12 99
13 21
13 26
13 28
13 29
13 31
13 37
13 38
13 39
13 40
13 41
13 42
13 45
13 46
13 49
13 50
13 53
13 61
13 62
13 63
13 64
13 67
13 74
13 79
13 82
13 83
13 86
13 90
13 91
13 96
13 97
14 15
14 16
14 17
14 18
14 19
14 20
14 23
14 28
14 30
14 38
14 41
14 45
14 49
14 51
14 60
14 62
14 63
14 70
14 74
14 75
14 76
14 77
14 78
14 80
14 81
14 90
14 91
14 93
14 95
15 20
15 25
15 26
15 31
15 32
15 36
15 38
15 40
15 43
15 52
15 56
15 57
15 60
15 64
15 65
15 70
15 72
15 73
15 75
15 77
15 78
15 84
15 85
15 91
15 96
16 20
16 21
16 22
16 25
16 29
16 32
16 35
16 40
16 42
16 43
16 46
16 48
16 50
16 52
16 60
16 61
16 67
16 72
16 75
16 79
16 81
16 83
16 93
16 95
16 98
17 23
17 26
17 29
17 38
17 46
17 47
17 51
17 64
17 65
17 68
17 73
17 83
17 85
17 92
17 94
17 98
18 23
18 26
18 30
18 31
18 34
18 36
18 37
18 41
18 44
18 46
18 47
18 52
18 54
18 57
18 58
18 60
18 62
18 65
18 68
18 69
18 70
18 72
18 89
18 90
18 94
18 95
18 97
18 99
19 21
19 25
19 26
19 27
19 31
19 37
19 38
19 40
19 44
19 47
19 52
19 54
19 56
19 60
19 61
19 64
19 65
19 71
19 72
19 73
19 78
19 80
19 84
19 91
19 99
20 21
20 22
20 23
20 28
20 35
20 39
20 41
20 42
20 43
20 44
20 49
20 50
20 54
20 55
20 58
20 61
20 65
20 66
20 67
20 68
20 77
20 81
20 91
20 92
20 94
20 95
20 96
20 97
20 99
21 23
21 32
21 35
21 42
21 46
21 51
21 52
21 53
21 59
21 61
21 65
21 69
21 77
21 80
21 83
21 84
21 90
21 93
21 95
21 96
21 99
22 24
22 26
22 33
22 39
22 46
22 47
22 51
22 53
22 56
22 58
22 73
22 80
22 82
22 90
22 91
22 94
22 95
22 96
23 28
23 32
23 33
23 34
23 35
23 36
23 37
23 39
23 43
23 47
23 53
23 54
23 60
23 63
23 64
23 74
23 78
23 86
23 87
23 89
23 91
23 93
23 95
23 97
23 98
24 25
24 26
24 28
24 37
24 39
24 40
24 43
24 47
24 50
24 52
24 54
24 60
24 63
24 67
24 68
24 72
24 74
24 76
24 89
24 93
24 95
24 97
24 99
25 27
25 32
25 38
25 39
25 40
25 44
25 45
25 52
25 54
25 56
25 57
25 61
25 63
25 67
25 71
25 73
25 74
25 78
25 85
25 86
25 89
25 91
25 97
26 28
26 34
26 36
26 38
26 42
26 47
26 48
26 51
26 52
26 53
26 55
26 59
26 60
26 61
26 64
26 65
26 66
26 69
26 72
26 76
26 84
26 88
26 89
26 91
26 93
26 95
26 98
26 99
27 36
27 37
27 38
27 41
27 43
27 52
27 55
27 56
27 57
27 58
27 63
27 69
27 70
27 73
27 78
27 86
27 87
27 98
28 31
28 32
28 33
28 34
28 37
28 38
28 39
28 42
28 45
28 50
28 52
28 53
28 55
28 70
28 71
28 75
28 77
28 78
28 84
28 92
28 93
28 98
28 99
29 32
29 34
29 40
29 41
29 42
29 44
29 46
29 50
29 54
29 56
29 59
29 60
29 62
29 70
29 71
29 76
29 84
29 85
29 90
29 92
29 97
29 98
30 31
30 34
30 39
30 44
30 58
30 61
30 64
30 71
30 74
30 75
30 77
30 93
30 95
30 98
31 34
31 35
31 37
31 43
31 54
31 58
31 60
31 63
31 65
31 71
31 72
31 74
31 79
31 81
31 83
31 90
31 92
31 95
31 96
31 97
31 99
32 34
32 35
32 36
32 47
32 48
32 52
32 53
32 56
32 60
32 61
32 62
32 63
32 64
32 69
32 70
32 74
32 80
32 81
32 85
32 86
32 87
32 88
32 97
33 37
33 43
33 46
33 47
33 49
33 50
33 52
33 55
33 60
33 62
33 63
33 66
33 71
33 72
33 77
33 80
33 85
33 86
33 87
33 89
33 93
33 96
34 40
34 42
34 46
34 48
34 55
34 56
34 58
34 60
34 64
34 66
34 67
34 68
34 80
34 86
34 89
34 93
34 97
35 40
35 43
35 50
35 53
35 58
35 66
35 68
35 72
35 73
35 78
35 82
35 83
35 87
35 88
35 89
35 90
35 97
36 41
36 45
36 46
36 51
36 54
36 56
36 58
36 62
36 63
36 64
36 67
36 68
36 69
36 76
36 89
36 91
36 92
36 93
37 38
37 45
37 48
37 50
37 51
37 52
37 54
37 55
37 58
37 60
37 61
37 64
37 65
37 70
37 74
37 75
37 77
37 81
37 82
37 85
37 86
37 87
37 90
37 92
37 95
37 96
37 98
37 99
38 41
38 47
38 49
38 52
38 56
38 57
38 61
38 62
38 64
38 66
38 70
38 71
38 75
38 77
38 80
38 84
38 91
38 96
38 99
39 46
39 47
39 49
39 55
39 60
39 62
39 66
39 70
39 72
39 89
39 90
39 95
39 96
39 99
40 45
40 49
40 50
40 51
40 52
40 55
40 56
40 62
40 66
40 70
40 75
40 76
40 80
40 81
40 84
40 91
40 96
40 98
41 49
41 53
41 55
41 57
41 60
41 62
41 63
41 64
41 69
41 70
41 81
41 82
41 83
41 86
41 89
41 90
41 96
42 43
42 44
42 46
42 49
42 50
42 53
42 67
42 70
42 77
42 80
42 81
42 92
42 96
42 98
42 99
43 50
43 55
43 58
43 59
43 62
43 65
43 66
43 67
43 77
43 80
43 81
43 85
43 89
43 90
43 92
43 94
43 99
44 47
44 48
44 51
44 54
44 64
44 66
44 68
44 72
44 76
44 80
44 89
44 99
45 51
45 52
45 53
45 54
45 56
45 57
45 64
45 65
45 66
45 73
45 74
45 76
45 78
45 79
45 82
45 86
45 91
45 97
45 99
46 48
46 51
46 54
46 55
46 69
46 70
46 71
46 76
46 77
46 84
46 85
46 87
46 96
46 97
46 99
47 52
47 53
47 64
47 66
47 67
47 68
47 71
47 74
47 76
47 81
47 83
47 85
47 87
47 89
47 90
47 94
47 95
47 99
48 50
48 53
48 55
48 56
48 57
48 64
48 65
48 67
48 69
48 70
48 71
48 72
48 76
48 78
48 79
48 81
48 83
48 84
48 89
48 93
48 96
48 98
49 52
49 53
49 54
49 56
49 59
49 63
49 65
49 74
49 83
49 87
49 89
49 90
49 91
49 93
49 95
49 96
50 52
50 53
50 55
50 57
50 62
50 64
50 66
50 70
50 71
50 72
50 75
50 76
50 79
50 88
50 94
51 55
51 56
51 57
51 58
51 59
51 64
51 65
51 75
51 84
51 85
51 91
52 54
52 62
52 66
52 72
52 74
52 77
52 82
52 88
52 91
52 99
53 54
53 55
53 57
53 59
53 61
53 67
53 69
53 76
53 79
53 80
53 92
53 99
54 55
54 60
54 62
54 63
54 64
54 74
54 76
54 81
54 82
54 88
54 89
54 93
55 66
55 80
55 83
55 87
55 90
55 97
55 99
56 58
56 60
56 61
56 62
56 68
56 75
56 78
56 79
56 80
56 82
56 83
56 84
56 86
56 90
56 92
56 95
56 96
57 58
57 65
57 68
57 70
57 71
57 72
57 79
57 80
57 82
57 83
57 91
57 92
57 94
57 98
58 59
58 60
58 61
58 63
58 64
58 69
58 71
58 73
58 75
58 76
58 77
58 83
58 84
58 87
58 95
58 99
59 60
59 64
59 68
59 72
59 76
59 79
59 87
59 90
59 94
59 95
60 61
60 69
60 70
60 71
60 79
60 81
60 82
60 83
60 85
60 86
60 88
60 89
60 90
60 91
60 93
60 94
60 97
61 75
61 77
61 81
61 82
61 85
61 88
62 64
62 69
62 70
62 73
62 75
62 76
62 79
62 81
62 83
62 86
62 87
62 88
62 89
62 90
62 97
62 99
63 65
63 69
63 73
63 74
63 75
63 81
63 85
63 87
63 91
63 96
63 97
64 67
64 72
64 80
64 92
65 68
65 70
65 72
65 75
65 78
65 80
65 87
65 95
66 71
66 74
66 81
66 83
66 84
66 89
66 90
66 96
66 99
67 69
67 72
67 74
67 76
67 84
67 92
68 69
68 72
68 74
68 75
68 77
68 79
68 80
68 83
68 84
68 90
68 91
68 94
68 97
68 99
69 71
69 81
69 84
69 85
69 89
69 92
70 78
70 79
70 82
70 87
70 91
70 93
71 74
71 75
71 77
71 79
71 81
71 83
71 84
71 85
71 94
71 97
72 74
72 83
72 85
72 90
72 97
73 77
73 86
73 87
73 88
73 91
73 96
74 75
74 76
74 79
74 80
74 82
74 83
74 91
74 93
74 99
75 76
75 78
75 96
75 97
76 81
76 82
76 88
76 89
76 92
76 97
77 78
77 86
77 88
77 92
77 96
77 97
78 79
78 86
78 90
78 91
79 81
79 87
79 90
79 94
79 96
80 86
80 87
80 95
80 99
81 84
81 86
81 89
81 93
81 97
81 99
82 86
82 87
82 90
82 91
82 94
83 93
84 85
84 87
84 88
84 90
84 91
84 93
84 96
85 86
85 89
85 91
85 95
85 99
86 87
86 88
86 90
86 99
87 88
87 94
88 92
88 93
88 99
89 97
89 98
89 99
90 92
90 93
90 94
90 96
90 98
90 99
91 93
91 94
91 97
92 93
92 95
93 98
93 99
94 96
94 98
94 99
95 97
95 98
96 97
96 99
41 62 11 25 28
17 79 39 3 23
14 43 56 37 5
15 2 44 42 87
64 38 72 85 1
89 68 59 78 83
81 60 8 97 32
6 92 16 24 26
10 57 12 95 98
35 88 82 50 65
76 86 13 4 77
19 46 21 53 84
22 18 63 75 34
29 9 55 99 45
71 40 36 94 7
20 73 90 51 69
80 93 74 27 96
0 70 30 47 52
54 48 49 31 58
67 61 33 91 66
